NAME : pr124.36605.tour
COMMENT : Length = 36605
COMMENT : Found by LKH [Keld Helsgaun] Wed May 29 17:05:40 2013
TYPE : TOUR
DIMENSION : 25
TOUR_SECTION
28
3
32
31
62
65
74
75
81
120
119
91
90
103
104
89
49
15
14
16
44
43
40
55
29
-1
EOF
